120
150
97
75
75
24
95
75
51
24
33
35
28
63
87
54
55
50
45
85
81
76
45
31
65
50
100
38
92
58
52
54
47
40
67
82
63
44
100
58
100
90
50
50
31
29
63
24
29
34
74
36
85
81
75
99
75
89
64
75
75
66
82
65
85
64
53
51
100
100
50
41
40
82
66
29
50
36
64
46
42
66
82
61
24
85
37
29
40
51
50
40
60
30
100
50
40
34
100
36
50
51
99
98
75
75
66
33
40
53
38
97
59
53
51
75
75
50
100
40
51
99
